1074900
63,13,68,72,55,44,91,42,35,2,3,5,64,27,53,8,89,85,99,36,50,88,76,38,87,45,86,81,4,7,66,14,39,92,84,22,52,43,24,59,19,17,26,12,94,40,29,79,51,78,25,90,65,54,98,23,11,28,46,71,34,73,83,15,16,58,61,82,67,80,93,49,56,10,77,30,96,21,20,18,69,41,75,6,62,31,60,32,74,37,48,1,70,33,9,57,47,95